
Gurobi 7.5.1 (win64, Python) logging started 01/07/18 18:18:04

Academic license - for non-commercial use only
Optimize a model with 11 rows, 28 columns and 56 nonzeros
Coefficient statistics:
  Matrix range     [1e+00, 1e+00]
  Objective range  [2e+00, 3e+01]
  Bounds range     [0e+00, 0e+00]
  RHS range        [9e+01, 7e+02]
Presolve time: 0.05s
Presolved: 11 rows, 28 columns, 56 nonzeros

Iteration    Objective       Primal Inf.    Dual Inf.      Time
       0    1.3980000e+04   1.752000e+03   0.000000e+00      0s
       6    1.7592000e+04   0.000000e+00   0.000000e+00      0s

Solved in 6 iterations and 0.10 seconds
Optimal objective  1.759200000e+04

Gurobi 7.5.1 (win64, Python) logging started 01/07/18 18:25:27

Academic license - for non-commercial use only
Optimize a model with 11 rows, 28 columns and 56 nonzeros
Coefficient statistics:
  Matrix range     [1e+00, 1e+00]
  Objective range  [2e+00, 3e+01]
  Bounds range     [0e+00, 0e+00]
  RHS range        [9e+01, 7e+02]
Presolve time: 0.06s
Presolved: 11 rows, 28 columns, 56 nonzeros

Iteration    Objective       Primal Inf.    Dual Inf.      Time
       0    1.3980000e+04   1.752000e+03   0.000000e+00      0s
       6    1.7592000e+04   0.000000e+00   0.000000e+00      0s

Solved in 6 iterations and 0.16 seconds
Optimal objective  1.759200000e+04
